benchmarks_CP/INST_36x36/30/inst36x36_30_95.dzn
S=6;
start=[|
-1,	21,	-1,	-1,	-1,	-1,	-1,	33,	23,	-1,	-1,	-1,	-1,	-1,	-1,	1,	5,	2,	-1,	-1,	-1,	-1,	16,	-1,	-1,	-1,	-1,	4,	-1,	13,	-1,	-1,	-1,	-1,	-1,	19|
-1,	-1,	-1,	-1,	23,	-1,	32,	-1,	-1,	-1,	35,	6,	-1,	27,	19,	-1,	-1,	-1,	-1,	5,	-1,	-1,	-1,	-1,	-1,	-1,	-1,	-1,	-1,	-1,	-1,	-1,	4,	22,	29,	13|
31,	-1,	-1,	4,	15,	28,	8,	-1,	-1,	-1,	-1,	9,	3,	14,	-1,	-1,	32,	6,	-1,	35,	-1,	-1,	-1,	-1,	19,	18,	16,	36,	-1,	-1,	11,	-1,	-1,	-1,	-1,	-1|
-1,	-1,	-1,	-1,	-1,	-1,	-1,	20,	3,	-1,	25,	28,	21,	-1,	-1,	22,	-1,	4,	2,	-1,	-1,	-1,	-1,	-1,	-1,	-1,	-1,	-1,	-1,	17,	31,	-1,	10,	-1,	14,	-1|
-1,	-1,	-1,	-1,	19,	-1,	-1,	11,	-1,	-1,	-1,	-1,	17,	-1,	-1,	-1,	-1,	30,	-1,	-1,	-1,	22,	-1,	-1,	-1,	-1,	-1,	12,	-1,	-1,	15,	-1,	-1,	-1,	25,	-1|
-1,	-1,	5,	-1,	33,	-1,	-1,	-1,	-1,	-1,	-1,	-1,	10,	-1,	-1,	-1,	35,	24,	-1,	-1,	-1,	23,	-1,	4,	-1,	-1,	-1,	-1,	-1,	-1,	-1,	-1,	-1,	-1,	-1,	-1|
30,	-1,	-1,	-1,	32,	-1,	-1,	-1,	-1,	-1,	-1,	-1,	-1,	-1,	-1,	-1,	-1,	-1,	21,	-1,	7,	31,	26,	20,	-1,	22,	36,	-1,	14,	-1,	19,	28,	-1,	-1,	-1,	-1|
21,	-1,	-1,	29,	-1,	-1,	-1,	-1,	-1,	-1,	-1,	-1,	-1,	2,	-1,	-1,	22,	-1,	-1,	36,	-1,	-1,	-1,	-1,	10,	-1,	12,	-1,	-1,	4,	-1,	-1,	-1,	-1,	-1,	-1|
-1,	-1,	6,	20,	-1,	-1,	-1,	21,	32,	-1,	29,	-1,	-1,	-1,	26,	11,	28,	-1,	35,	24,	-1,	-1,	-1,	-1,	9,	-1,	19,	-1,	34,	-1,	-1,	-1,	-1,	15,	-1,	-1|
-1,	8,	18,	-1,	1,	-1,	28,	-1,	-1,	-1,	-1,	-1,	-1,	-1,	-1,	-1,	-1,	-1,	3,	-1,	-1,	-1,	-1,	-1,	-1,	11,	-1,	-1,	-1,	-1,	-1,	20,	-1,	-1,	-1,	-1|
-1,	-1,	-1,	-1,	-1,	-1,	-1,	-1,	-1,	17,	-1,	-1,	-1,	-1,	16,	27,	19,	-1,	-1,	-1,	-1,	8,	10,	-1,	-1,	-1,	-1,	6,	31,	23,	34,	32,	33,	29,	-1,	-1|
-1,	-1,	35,	-1,	-1,	-1,	-1,	-1,	-1,	2,	-1,	25,	-1,	-1,	-1,	-1,	-1,	14,	-1,	-1,	12,	-1,	22,	29,	-1,	-1,	-1,	-1,	-1,	-1,	18,	-1,	-1,	23,	-1,	-1|
-1,	12,	-1,	-1,	29,	-1,	2,	-1,	6,	-1,	-1,	-1,	-1,	-1,	17,	35,	26,	-1,	-1,	-1,	33,	-1,	-1,	-1,	-1,	-1,	-1,	8,	19,	-1,	14,	36,	-1,	-1,	30,	-1|
-1,	10,	-1,	-1,	17,	-1,	-1,	24,	-1,	-1,	-1,	-1,	27,	-1,	-1,	-1,	-1,	-1,	-1,	-1,	-1,	20,	-1,	-1,	-1,	14,	32,	-1,	-1,	30,	-1,	-1,	-1,	-1,	11,	34|
19,	5,	9,	-1,	20,	21,	-1,	-1,	35,	-1,	36,	-1,	-1,	-1,	-1,	-1,	31,	-1,	-1,	1,	-1,	-1,	11,	-1,	-1,	-1,	-1,	34,	28,	6,	-1,	-1,	-1,	24,	10,	27|
16,	26,	-1,	-1,	34,	-1,	-1,	25,	14,	-1,	-1,	-1,	-1,	-1,	-1,	5,	-1,	11,	-1,	17,	-1,	-1,	-1,	-1,	-1,	-1,	-1,	-1,	2,	-1,	8,	-1,	-1,	33,	1,	-1|
-1,	-1,	15,	-1,	6,	-1,	-1,	3,	-1,	-1,	19,	-1,	-1,	-1,	22,	-1,	-1,	-1,	-1,	-1,	25,	28,	-1,	5,	31,	-1,	-1,	-1,	-1,	-1,	-1,	-1,	-1,	-1,	-1,	-1|
-1,	-1,	36,	18,	-1,	-1,	26,	-1,	-1,	-1,	17,	-1,	29,	-1,	-1,	-1,	-1,	-1,	30,	-1,	-1,	-1,	-1,	-1,	-1,	-1,	-1,	16,	-1,	12,	-1,	-1,	13,	31,	-1,	-1|
-1,	29,	-1,	-1,	2,	-1,	33,	-1,	31,	-1,	-1,	-1,	-1,	-1,	-1,	-1,	-1,	-1,	10,	-1,	6,	-1,	-1,	-1,	-1,	-1,	5,	15,	4,	22,	-1,	18,	-1,	11,	26,	-1|
-1,	28,	24,	-1,	36,	-1,	-1,	-1,	13,	-1,	-1,	-1,	-1,	-1,	-1,	-1,	33,	-1,	-1,	18,	-1,	-1,	-1,	-1,	-1,	-1,	-1,	-1,	-1,	-1,	-1,	-1,	-1,	-1,	3,	-1|
14,	-1,	27,	-1,	-1,	35,	20,	28,	-1,	-1,	32,	-1,	-1,	-1,	-1,	26,	-1,	-1,	-1,	-1,	34,	-1,	19,	-1,	36,	7,	-1,	-1,	-1,	-1,	-1,	-1,	-1,	-1,	-1,	-1|
-1,	-1,	11,	-1,	-1,	-1,	21,	-1,	-1,	36,	12,	-1,	-1,	-1,	-1,	31,	16,	-1,	20,	14,	-1,	15,	-1,	-1,	-1,	-1,	-1,	26,	27,	-1,	-1,	-1,	28,	2,	-1,	-1|
-1,	-1,	-1,	-1,	-1,	-1,	25,	9,	-1,	-1,	11,	-1,	-1,	-1,	-1,	4,	-1,	-1,	-1,	-1,	-1,	2,	-1,	35,	-1,	-1,	-1,	33,	13,	3,	36,	-1,	-1,	20,	-1,	29|
-1,	-1,	-1,	-1,	4,	-1,	-1,	-1,	-1,	-1,	-1,	-1,	24,	-1,	-1,	-1,	-1,	-1,	-1,	-1,	-1,	-1,	-1,	16,	-1,	-1,	-1,	-1,	20,	-1,	-1,	-1,	-1,	35,	5,	-1|
-1,	-1,	34,	-1,	-1,	-1,	-1,	4,	5,	-1,	21,	-1,	11,	-1,	35,	-1,	3,	13,	-1,	-1,	-1,	-1,	-1,	14,	29,	-1,	-1,	-1,	17,	33,	24,	-1,	31,	-1,	-1,	28|
13,	9,	-1,	-1,	-1,	4,	-1,	18,	-1,	-1,	-1,	32,	7,	23,	36,	-1,	2,	-1,	-1,	25,	35,	29,	-1,	31,	22,	-1,	15,	21,	-1,	-1,	-1,	26,	-1,	19,	27,	-1|
-1,	15,	-1,	-1,	-1,	-1,	6,	-1,	-1,	25,	10,	-1,	-1,	-1,	-1,	-1,	9,	-1,	18,	19,	-1,	-1,	-1,	13,	-1,	-1,	-1,	-1,	-1,	-1,	-1,	17,	-1,	-1,	-1,	-1|
-1,	-1,	10,	27,	35,	-1,	-1,	-1,	-1,	-1,	-1,	33,	-1,	-1,	5,	-1,	1,	18,	-1,	-1,	36,	-1,	-1,	-1,	8,	31,	-1,	23,	-1,	-1,	-1,	-1,	-1,	-1,	-1,	-1|
-1,	-1,	19,	-1,	-1,	-1,	-1,	35,	-1,	-1,	-1,	26,	-1,	-1,	14,	-1,	-1,	-1,	-1,	-1,	-1,	-1,	2,	22,	-1,	-1,	-1,	7,	24,	-1,	-1,	-1,	11,	-1,	32,	-1|
-1,	-1,	-1,	-1,	-1,	-1,	-1,	36,	-1,	11,	-1,	31,	-1,	28,	27,	-1,	-1,	-1,	-1,	-1,	-1,	17,	8,	15,	12,	-1,	-1,	32,	-1,	26,	13,	-1,	-1,	-1,	-1,	33|
15,	-1,	33,	3,	24,	-1,	-1,	-1,	-1,	-1,	-1,	-1,	-1,	-1,	28,	-1,	-1,	-1,	-1,	-1,	-1,	-1,	36,	-1,	-1,	-1,	-1,	2,	-1,	8,	-1,	-1,	-1,	4,	-1,	-1|
-1,	-1,	-1,	-1,	-1,	-1,	14,	-1,	-1,	8,	-1,	-1,	-1,	-1,	-1,	19,	-1,	3,	-1,	21,	-1,	-1,	29,	-1,	-1,	-1,	33,	-1,	22,	-1,	-1,	-1,	36,	-1,	-1,	-1|
-1,	-1,	-1,	-1,	31,	-1,	-1,	12,	-1,	-1,	-1,	-1,	-1,	26,	-1,	30,	-1,	-1,	-1,	-1,	24,	16,	-1,	-1,	-1,	-1,	-1,	-1,	-1,	-1,	21,	-1,	-1,	-1,	-1,	-1|
-1,	-1,	-1,	21,	-1,	-1,	-1,	-1,	-1,	-1,	-1,	-1,	-1,	-1,	-1,	-1,	36,	-1,	1,	31,	-1,	-1,	25,	-1,	-1,	-1,	-1,	-1,	-1,	16,	28,	-1,	19,	5,	7,	-1|
-1,	23,	-1,	-1,	12,	-1,	-1,	16,	-1,	6,	-1,	-1,	-1,	-1,	-1,	-1,	-1,	-1,	27,	-1,	-1,	-1,	-1,	9,	-1,	-1,	26,	-1,	-1,	32,	-1,	-1,	-1,	-1,	-1,	-1|
10,	-1,	-1,	36,	-1,	-1,	-1,	-1,	-1,	23,	26,	-1,	-1,	-1,	-1,	-1,	27,	-1,	-1,	-1,	-1,	-1,	-1,	-1,	20,	-1,	31,	-1,	-1,	-1,	-1,	1,	9,	-1,	-1,	-1|];
